feasible solution found by trivial heuristic after 0.0 seconds, objective value 0.000000e+00
presolving:
(round 1, fast)       2251 del vars, 2052 del conss, 0 add conss, 608 chg bounds, 0 chg sides, 0 chg coeffs, 0 upgd conss, 0 impls, 3380 clqs
(round 2, fast)       4254 del vars, 5650 del conss, 0 add conss, 608 chg bounds, 1597 chg sides, 0 chg coeffs, 0 upgd conss, 0 impls, 1783 clqs
   (0.1s) running MILP presolver
   (0.1s) MILP presolver (4 rounds): 0 aggregations, 2001 fixings, 0 bound changes
(round 3, medium)     6255 del vars, 13095 del conss, 4771 add conss, 608 chg bounds, 1597 chg sides, 0 chg coeffs, 0 upgd conss, 0 impls, 1783 clqs
(round 4, exhaustive) 6255 del vars, 13095 del conss, 4771 add conss, 608 chg bounds, 1597 chg sides, 0 chg coeffs, 4771 upgd conss, 0 impls, 3174 clqs
(round 5, fast)       6492 del vars, 13095 del conss, 4771 add conss, 608 chg bounds, 1597 chg sides, 0 chg coeffs, 4771 upgd conss, 0 impls, 3174 clqs
(round 6, fast)       6492 del vars, 13095 del conss, 4771 add conss, 608 chg bounds, 1597 chg sides, 237 chg coeffs, 4771 upgd conss, 0 impls, 3174 clqs
(round 7, exhaustive) 6492 del vars, 14827 del conss, 4771 add conss, 608 chg bounds, 1597 chg sides, 237 chg coeffs, 4771 upgd conss, 0 impls, 3174 clqs
   (0.2s) running MILP presolver
   (0.2s) MILP presolver (2 rounds): 0 aggregations, 0 fixings, 0 bound changes
   (0.2s) probing: 51/1562 (3.3%) - 0 fixings, 0 aggregations, 0 implications, 0 bound changes
   (0.2s) probing aborted: 50/50 successive totally useless probings
   (0.2s) symmetry computation started: requiring (bin +, int -, cont +), (fixed: bin -, int +, cont -)
   (0.2s) no symmetry present
presolving (8 rounds: 8 fast, 4 medium, 3 exhaustive):
 6492 deleted vars, 14827 deleted constraints, 4771 added constraints, 608 tightened bounds, 0 added holes, 1597 changed sides, 237 changed coefficients
 0 implications, 3174 cliques
presolved problem has 1562 variables (1562 bin, 0 int, 0 impl, 0 cont) and 3039 constraints
   1442 constraints of type <setppc>
   1597 constraints of type <logicor>
transformed objective value is always integral (scale: 0.00148148148148148)
Presolving Time: 0.19

 time | node  | left  |LP iter|LP it/n|mem/heur|mdpt |vars |cons |rows |cuts |sepa|confs|strbr|  dualbound   | primalbound  |  gap   | compl. 
t 0.2s|     1 |     0 |     0 |     - | trivial|   0 |1562 |3039 |   0 |   0 |  0 |   0 |   0 | 1.000700e+04 | 0.000000e+00 |    Inf | unknown
p 0.2s|     1 |     0 |     0 |     - |   locks|   0 |1562 |3039 |3039 |   0 |  0 |   0 |   0 | 1.000700e+04 | 2.049000e+03 | 388.38%| unknown
i 0.2s|     1 |     0 |     0 |     - |  oneopt|   0 |1562 |3039 |3039 |   0 |  0 |   0 |   0 | 1.000700e+04 | 2.057000e+03 | 386.49%| unknown
  0.3s|     1 |     0 |  1013 |     - |    46M |   0 |1562 |3039 |3039 |   0 |  0 |   0 |   0 | 3.224004e+03 | 2.057000e+03 |  56.73%| unknown
  0.4s|     1 |     0 |  1121 |     - |    48M |   0 |1562 |3039 |3040 |   1 |  1 |   0 |   0 | 3.215188e+03 | 2.057000e+03 |  56.30%| unknown
  0.4s|     1 |     0 |  1207 |     - |    50M |   0 |1562 |3039 |3041 |   2 |  2 |   0 |   0 | 3.212325e+03 | 2.057000e+03 |  56.17%| unknown
  0.5s|     1 |     0 |  1309 |     - |    52M |   0 |1562 |3039 |3042 |   3 |  3 |   0 |   0 | 3.209833e+03 | 2.057000e+03 |  56.04%| unknown
  0.6s|     1 |     0 |  1424 |     - |    52M |   0 |1562 |3039 |3043 |   4 |  4 |   0 |   0 | 3.206996e+03 | 2.057000e+03 |  55.91%| unknown
  0.6s|     1 |     0 |  1527 |     - |    55M |   0 |1562 |3039 |3044 |   5 |  5 |   0 |   0 | 3.205765e+03 | 2.057000e+03 |  55.85%| unknown
  0.7s|     1 |     0 |  1664 |     - |    56M |   0 |1562 |3039 |3046 |   7 |  6 |   0 |   0 | 3.203412e+03 | 2.057000e+03 |  55.73%| unknown
  0.8s|     1 |     0 |  1761 |     - |    58M |   0 |1562 |3039 |3047 |   8 |  7 |   0 |   0 | 3.202018e+03 | 2.057000e+03 |  55.66%| unknown
  0.9s|     1 |     0 |  1890 |     - |    59M |   0 |1562 |3039 |3048 |   9 |  8 |   0 |   0 | 3.201246e+03 | 2.057000e+03 |  55.63%| unknown
  0.9s|     1 |     0 |  2017 |     - |    61M |   0 |1562 |3039 |3049 |  10 |  9 |   0 |   0 | 3.200581e+03 | 2.057000e+03 |  55.59%| unknown
  1.0s|     1 |     0 |  2115 |     - |    62M |   0 |1562 |3039 |3050 |  11 | 10 |   0 |   0 | 3.200011e+03 | 2.057000e+03 |  55.57%| unknown
  1.1s|     1 |     0 |  2213 |     - |    63M |   0 |1562 |3039 |3052 |  13 | 11 |   0 |   0 | 3.199708e+03 | 2.057000e+03 |  55.55%| unknown
 time | node  | left  |LP iter|LP it/n|mem/heur|mdpt |vars |cons |rows |cuts |sepa|confs|strbr|  dualbound   | primalbound  |  gap   | compl. 
  1.1s|     1 |     0 |  2345 |     - |    63M |   0 |1562 |3039 |3055 |  16 | 12 |   0 |   0 | 3.198736e+03 | 2.057000e+03 |  55.50%| unknown
  1.1s|     1 |     0 |  2435 |     - |    63M |   0 |1562 |3039 |3057 |  18 | 13 |   0 |   0 | 3.198025e+03 | 2.057000e+03 |  55.47%| unknown
  1.2s|     1 |     0 |  2495 |     - |    64M |   0 |1562 |3039 |3059 |  20 | 14 |   0 |   0 | 3.197733e+03 | 2.057000e+03 |  55.46%| unknown
d 1.4s|     1 |     0 |  3811 |     - |farkasdi|   0 |1562 |3039 |3059 |   0 | 16 |   0 |   0 | 3.197733e+03 | 2.522000e+03 |  26.79%| unknown
L 7.4s|     1 |     0 |  3811 |     - |    rens|   0 |1562 |3039 |3059 |  20 | 16 |   0 |   0 | 3.197733e+03 | 2.697000e+03 |  18.57%| unknown
  7.4s|     1 |     0 |  3811 |     - |    65M |   0 |1562 |3039 |3059 |  20 | 16 |   0 |   0 | 3.197733e+03 | 2.697000e+03 |  18.57%| unknown
  7.4s|     1 |     0 |  3882 |     - |    65M |   0 |1562 |3039 |3061 |  22 | 17 |   0 |   0 | 3.197296e+03 | 2.697000e+03 |  18.55%| unknown
  9.3s|     1 |     2 |  3882 |     - |    65M |   0 |1562 |3039 |3061 |  22 | 18 |   0 |  20 | 3.164057e+03 | 2.697000e+03 |  17.32%| unknown
 24.2s|   100 |     9 | 18457 | 160.5 |    72M |  12 |1562 |3163 |3061 |  41 |  0 | 124 | 403 | 3.087902e+03 | 2.697000e+03 |  14.49%|  36.32%
 28.1s|   200 |     9 | 29150 | 133.6 |    82M |  17 |1562 |3191 |3062 |  92 |  0 | 152 | 455 | 3.087902e+03 | 2.697000e+03 |  14.49%|  46.84%
 34.7s|   300 |    19 | 45168 | 142.5 |    90M |  17 |1562 |3212 |3075 | 201 |  0 | 173 | 501 | 3.007843e+03 | 2.697000e+03 |  11.53%|  61.33%
 40.3s|   400 |    19 | 57010 | 136.5 |    91M |  21 |1562 |3232 |3081 | 225 |  0 | 193 | 535 | 2.957446e+03 | 2.697000e+03 |   9.66%|  67.11%
 43.4s|   500 |    21 | 68138 | 131.4 |    91M |  24 |1562 |3242 |3075 | 269 |  0 | 203 | 566 | 2.948265e+03 | 2.697000e+03 |   9.32%|  70.88%

SCIP Status        : problem is solved [optimal solution found]
Solving Time (sec) : 47.53
Solving Nodes      : 557
Primal Bound       : +2.69700000000000e+03 (345 solutions)
Dual Bound         : +2.69700000000000e+03
Gap                : 0.00 %
Solve Status: optimal
Solve Time: 47.54 seconds
